Figure: medium_5
File Number: 12
Nodes: 100
Edges: 2527
Max Generations: 1000
Population Size: 100
Mutation Rate: 0.01
Colors Used: 24
Runtime: 7.61

Generation,Average Fitness,Best Fitness
0,110.42,86
1,105.72,80
2,103.14,80
3,102.01,80
4,100.5,80
5,98.99,80
6,97.8,75
7,95.45,74
8,93.0,74
9,92.39,74
10,90.28,71
11,88.33,71
12,87.94,71
13,85.08,71
14,83.22,71
15,83.15,71
16,82.08,69
17,81.94,68
18,79.19,68
19,75.88,65
20,73.8,65
21,73.31,64
22,72.55,60
23,71.76,60
24,69.96,60
25,69.35,60
26,68.26,57
27,66.48,57
28,65.15,56
29,63.45,56
30,63.26,55
31,61.87,55
32,60.96,53
33,60.11,52
34,59.62,52
35,59.09,52
36,58.11,51
37,57.22,51
38,56.06,44
39,55.95,44
40,54.99,44
41,53.77,44
42,53.27,44
43,51.52,44
44,50.35,43
45,49.36,43
46,48.96,40
47,48.22,40
48,47.34,40
49,46.54,40
50,45.97,40
51,45.77,38
52,45.28,38
53,44.58,38
54,44.39,35
55,43.51,35
56,43.41,35
57,43.21,35
58,42.78,35
59,41.9,34
60,42.02,34
61,41.3,34
62,41.24,34
63,40.97,34
64,41.36,34
65,41.27,34
66,40.81,34
67,40.26,34
68,40.15,34
69,39.93,34
70,39.94,34
71,39.78,33
72,39.56,33
73,38.88,32
74,38.4,31
75,37.94,31
76,37.32,31
77,37.01,31
78,36.94,31
79,36.94,29
80,36.21,29
81,36.7,29
82,36.13,29
83,35.9,29
84,35.39,29
85,34.52,28
86,33.53,27
87,33.19,27
88,33.18,26
89,32.79,26
90,32.84,26
91,32.97,26
92,32.54,26
93,32.53,26
94,32.38,26
95,32.21,26
96,31.19,24
97,31.53,24
98,30.85,24
99,30.46,24
100,30.5,24
101,30.06,24
102,30.23,24
103,30.05,24
104,29.36,24
105,29.07,24
106,29.38,24
107,28.43,24
108,29.0,23
109,29.15,23
110,28.96,22
111,28.64,22
112,28.0,22
113,27.7,22
114,27.4,20
115,27.15,20
116,27.07,20
117,27.77,20
118,27.1,20
119,26.33,19
120,26.77,19
121,26.7,18
122,26.11,18
123,25.87,18
124,25.35,18
125,24.78,18
126,24.44,18
127,24.08,17
128,23.93,17
129,24.02,17
130,23.81,17
131,24.04,16
132,23.87,16
133,23.16,16
134,23.22,16
135,23.31,16
136,23.43,15
137,22.64,15
138,22.0,14
139,21.63,14
140,21.32,12
141,21.53,12
142,21.5,12
143,20.9,12
144,20.23,12
145,19.28,12
146,18.79,12
147,18.86,12
148,19.2,12
149,18.96,12
150,19.37,11
151,19.84,11
152,19.13,11
153,18.68,11
154,18.21,11
155,18.72,11
156,18.67,11
157,18.79,11
158,18.48,11
159,17.92,11
160,17.33,11
161,17.64,11
162,17.5,11
163,17.68,11
164,18.2,11
165,18.37,11
166,18.6,11
167,18.26,11
168,18.11,11
169,17.86,11
170,18.08,11
171,18.28,11
172,18.79,11
173,17.92,11
174,17.54,11
175,16.58,11
176,17.14,10
177,17.09,10
178,16.57,10
179,16.16,10
180,16.75,10
181,16.25,10
182,15.68,10
183,15.52,10
184,16.13,9
185,15.75,9
186,15.73,9
187,15.66,8
188,15.17,8
189,14.91,8
190,14.85,8
191,15.37,8
192,15.63,8
193,15.58,8
194,15.33,8
195,15.23,8
196,15.73,8
197,15.69,8
198,15.42,8
199,15.8,8
200,15.78,8
201,15.71,8
202,16.1,8
203,15.32,8
204,15.7,8
205,15.31,8
206,15.18,8
207,15.18,8
208,14.95,8
209,15.1,8
210,14.96,8
211,15.09,8
212,15.13,7
213,14.95,7
214,14.53,7
215,14.66,7
216,14.72,7
217,13.86,7
218,13.02,7
219,13.47,7
220,13.39,7
221,13.21,7
222,13.05,7
223,12.75,7
224,12.82,7
225,13.06,7
226,13.25,7
227,13.29,7
228,12.96,7
229,13.32,7
230,13.59,6
231,13.61,6
232,12.92,6
233,13.18,6
234,13.18,6
235,12.21,6
236,12.07,6
237,12.17,6
238,12.31,6
239,12.3,6
240,11.85,6
241,11.8,6
242,11.4,6
243,10.53,6
244,11.33,6
245,11.1,6
246,11.57,6
247,11.89,6
248,11.74,6
249,11.39,6
250,11.74,6
251,12.01,6
252,11.75,6
253,12.15,6
254,11.82,6
255,11.64,6
256,12.11,5
257,12.25,5
258,11.39,5
259,11.57,5
260,11.89,5
261,11.89,5
262,11.56,5
263,10.64,5
264,10.39,5
265,11.13,5
266,10.12,5
267,9.99,5
268,10.26,5
269,10.27,5
270,10.71,5
271,11.21,5
272,11.19,5
273,10.71,5
274,10.84,5
275,11.01,5
276,11.36,5
277,10.96,5
278,10.43,5
279,9.93,5
280,10.11,5
281,9.85,5
282,10.12,5
283,9.81,5
284,9.9,5
285,9.98,5
286,9.79,5
287,9.69,5
288,9.81,5
289,9.89,5
290,10.38,5
291,10.66,5
292,11.16,5
293,10.99,5
294,10.83,5
295,10.46,5
296,10.68,5
297,10.35,5
298,10.33,4
299,10.26,4
300,10.31,4
301,9.71,4
302,10.22,4
303,10.06,4
304,10.39,4
305,10.64,4
306,10.67,4
307,10.63,4
308,10.46,4
309,10.32,4
310,10.54,4
311,10.1,4
312,10.5,4
313,10.6,4
314,10.75,4
315,9.76,4
316,9.67,4
317,9.9,4
318,9.86,4
319,10.49,4
320,10.9,4
321,10.61,4
322,9.99,4
323,10.03,4
324,9.78,4
325,9.83,4
326,10.36,4
327,9.87,4
328,9.85,4
329,10.13,4
330,10.25,4
331,10.9,4
332,11.21,4
333,11.2,4
334,11.19,4
335,11.21,4
336,10.71,4
337,10.03,4
338,10.08,4
339,10.36,4
340,10.3,4
341,10.31,4
342,10.4,4
343,10.08,4
344,9.77,4
345,10.16,4
346,10.57,4
347,10.43,4
348,10.64,4
349,10.57,4
350,10.28,4
351,10.2,4
352,10.03,4
353,10.14,4
354,10.06,4
355,9.58,4
356,9.45,4
357,10.02,4
358,9.79,4
359,9.97,4
360,10.19,4
361,9.93,4
362,9.24,4
363,9.44,4
364,9.5,4
365,9.94,4
366,10.04,4
367,9.98,4
368,9.9,4
369,9.4,4
370,9.86,4
371,9.54,4
372,9.19,4
373,10.06,4
374,10.23,4
375,9.99,4
376,9.45,4
377,9.74,4
378,9.76,4
379,10.07,4
380,9.45,4
381,10.16,4
382,10.22,4
383,10.85,4
384,11.16,4
385,11.18,4
386,10.35,4
387,10.66,4
388,10.08,4
389,10.45,4
390,11.34,4
391,11.47,4
392,11.76,4
393,10.93,4
394,10.21,4
395,10.06,4
396,9.74,4
397,9.63,4
398,9.71,4
399,10.12,4
400,10.5,4
401,10.93,4
402,10.89,4
403,10.42,4
404,10.65,4
405,10.69,4
406,10.23,4
407,9.58,4
408,10.34,4
409,10.03,4
410,9.74,4
411,9.41,4
412,9.44,4
413,9.86,4
414,9.9,4
415,9.48,4
416,9.36,4
417,9.9,4
418,10.29,4
419,10.25,4
420,9.67,4
421,9.84,4
422,9.57,4
423,10.13,4
424,9.83,4
425,10.47,4
426,10.86,4
427,10.58,4
428,10.43,4
429,11.19,4
430,10.27,4
431,9.78,4
432,9.79,4
433,9.35,4
434,9.07,4
435,9.44,4
436,9.7,4
437,9.72,4
438,9.77,4
439,10.42,4
440,10.93,4
441,11.03,4
442,10.68,4
443,10.36,4
444,10.53,4
445,10.86,4
446,10.72,4
447,11.05,4
448,10.51,4
449,10.35,4
450,10.39,4
451,10.06,4
452,10.09,4
453,10.49,4
454,10.81,4
455,10.27,4
456,10.28,4
457,9.87,4
458,9.41,4
459,9.39,4
460,9.62,4
461,9.94,4
462,9.82,4
463,9.89,4
464,9.97,4
465,10.6,4
466,10.66,4
467,10.57,4
468,9.54,4
469,9.75,4
470,9.49,4
471,9.33,4
472,9.63,4
473,9.69,4
474,9.81,4
475,9.01,4
476,9.14,4
477,8.56,4
478,8.84,4
479,9.08,4
480,9.63,4
481,9.72,4
482,9.92,4
483,9.99,4
484,10.26,4
485,9.94,4
486,9.48,4
487,9.88,4
488,9.66,4
489,10.31,4
490,10.17,4
491,10.09,4
492,8.92,4
493,8.98,4
494,9.54,4
495,9.32,4
496,9.51,4
497,9.32,4
498,9.59,4
499,9.88,4
500,10.27,4
501,10.31,4
502,9.9,4
503,9.69,4
504,9.68,4
505,9.2,4
506,9.4,4
507,9.41,4
508,9.67,4
509,9.64,4
510,9.32,3
511,9.04,3
512,8.91,3
513,8.02,3
514,8.12,3
515,8.75,3
516,9.21,3
517,9.15,3
518,8.68,2
519,8.49,2
520,8.75,2
521,8.56,2
522,8.49,2
523,8.25,2
524,8.37,2
525,8.42,2
526,8.78,2
527,8.88,2
528,8.6,2
529,8.42,2
530,8.34,2
531,8.4,2
532,8.89,2
533,8.6,2
534,8.99,2
535,9.26,2
536,9.26,2
537,8.65,2
538,8.46,2
539,7.97,2
540,7.51,2
541,7.65,2
542,8.12,2
543,7.77,2
544,7.48,2
545,7.75,2
546,7.62,2
547,8.03,2
548,8.27,2
549,7.91,2
550,7.5,2
551,7.78,2
552,8.42,2
553,8.11,2
554,8.58,2
555,8.3,2
556,7.71,2
557,7.75,2
558,8.37,2
559,8.3,2
560,8.32,2
561,7.93,2
562,7.59,2
563,7.5,2
564,7.95,2
565,7.61,2
566,7.38,2
567,8.17,2
568,8.58,2
569,8.81,2
570,8.72,2
571,9.42,2
572,8.96,2
573,9.13,2
574,8.74,2
575,9.06,2
576,8.5,2
577,8.97,2
578,9.58,2
579,8.71,2
580,8.8,2
581,9.48,2
582,8.95,2
583,8.82,2
584,8.34,2
585,7.76,2
586,8.02,2
587,7.81,2
588,7.44,2
589,7.26,2
590,7.28,2
591,7.43,2
592,6.77,2
593,6.92,2
594,7.74,2
595,7.71,2
596,8.24,2
597,7.99,2
598,8.32,2
599,8.22,2
600,8.62,2
601,8.8,2
602,8.86,2
603,8.87,2
604,8.7,2
605,8.49,2
606,8.99,2
607,8.56,2
608,8.86,2
609,8.37,2
610,8.48,2
611,7.77,2
612,7.93,2
613,8.19,2
614,8.47,2
615,8.63,2
616,8.84,2
617,8.84,2
618,8.91,2
619,8.66,2
620,7.96,2
621,7.9,2
622,7.83,2
623,7.67,2
624,7.64,2
625,8.11,2
626,7.27,2
627,7.41,2
628,6.97,2
629,7.26,2
630,7.17,2
631,7.45,2
632,7.15,2
633,7.46,2
634,7.19,2
635,6.92,2
636,7.4,2
637,7.7,2
638,8.08,2
639,8.01,2
640,8.13,2
641,8.18,2
642,8.67,2
643,8.77,2
644,9.31,2
645,8.71,2
646,8.67,2
647,8.79,2
648,7.89,2
649,7.28,2
650,6.97,2
651,7.01,2
652,6.93,2
653,7.24,2
654,7.33,2
655,7.53,2
656,8.31,2
657,7.56,2
658,7.78,2
659,7.2,2
660,7.57,2
661,8.39,2
662,8.27,2
663,8.55,2
664,9.13,2
665,8.73,2
666,9.38,2
667,8.85,2
668,9.07,2
669,8.91,2
670,8.86,2
671,9.19,2
672,9.04,2
673,8.28,2
674,7.95,2
675,7.9,2
676,7.82,2
677,8.31,2
678,8.61,2
679,8.31,2
680,8.6,2
681,8.62,2
682,8.51,2
683,8.2,2
684,8.38,2
685,8.53,2
686,8.32,2
687,7.9,2
688,7.36,2
689,7.26,2
690,7.34,2
691,7.41,2
692,7.36,2
693,7.85,2
694,8.1,2
695,8.1,2
696,8.73,2
697,8.97,2
698,8.83,2
699,8.36,2
700,8.31,2
701,8.1,2
702,7.33,2
703,7.6,2
704,7.03,2
705,7.44,2
706,7.36,2
707,7.67,2
708,8.09,2
709,8.41,2
710,8.12,2
711,7.88,2
712,7.38,2
713,7.27,2
714,7.01,2
715,6.97,2
716,7.34,2
717,8.06,2
718,7.86,2
719,8.76,2
720,8.44,2
721,8.75,2
722,8.24,2
723,8.16,2
724,8.17,2
725,8.56,2
726,7.97,2
727,8.14,2
728,7.86,2
729,7.66,2
730,8.08,2
731,8.14,2
732,8.45,2
733,8.21,2
734,8.33,2
735,8.0,2
736,8.06,2
737,8.53,2
738,8.29,2
739,8.34,2
740,7.93,2
741,7.58,2
742,7.73,2
743,8.36,2
744,7.84,2
745,7.91,2
746,8.06,2
747,8.05,2
748,8.25,2
749,8.42,2
750,8.14,2
751,7.71,2
752,7.55,2
753,7.42,2
754,7.03,2
755,7.55,2
756,8.07,2
757,8.15,2
758,8.02,2
759,7.7,2
760,7.57,2
761,7.93,2
762,8.25,2
763,8.65,2
764,8.7,2
765,8.3,2
766,8.57,2
767,8.59,2
768,8.12,2
769,8.46,2
770,8.21,2
771,7.72,2
772,7.41,2
773,7.71,2
774,7.72,2
775,7.96,2
776,8.05,2
777,7.74,2
778,7.72,2
779,7.81,2
780,7.85,2
781,7.5,2
782,8.07,2
783,8.47,2
784,9.4,2
785,9.26,2
786,8.88,2
787,8.83,2
788,8.36,2
789,7.87,2
790,8.07,2
791,7.94,2
792,7.55,2
793,7.51,2
794,7.89,2
795,8.43,2
796,8.27,2
797,8.14,2
798,8.13,2
799,8.58,2
800,8.66,2
801,8.43,2
802,8.05,2
803,7.82,2
804,8.26,2
805,8.38,2
806,8.64,2
807,8.63,2
808,8.74,2
809,7.89,2
810,7.09,2
811,6.79,2
812,7.11,2
813,6.99,2
814,6.69,2
815,6.65,2
816,7.26,2
817,7.54,2
818,7.26,2
819,7.04,2
820,7.53,2
821,7.61,2
822,8.43,2
823,8.71,2
824,8.84,2
825,8.93,2
826,8.63,2
827,9.22,2
828,9.31,2
829,8.62,2
830,9.0,2
831,8.55,2
832,8.4,2
833,8.39,2
834,8.54,2
835,8.12,2
836,8.92,2
837,8.49,2
838,8.42,2
839,8.27,2
840,7.71,2
841,7.88,2
842,8.18,2
843,8.57,2
844,8.84,2
845,8.45,2
846,8.35,2
847,8.7,2
848,9.03,2
849,9.53,2
850,9.38,2
851,9.29,2
852,9.07,2
853,9.05,2
854,9.32,2
855,9.01,2
856,8.69,2
857,9.32,2
858,9.25,2
859,8.92,2
860,8.84,2
861,8.58,2
862,8.59,2
863,8.2,2
864,8.23,2
865,7.9,2
866,7.64,2
867,7.7,2
868,7.95,2
869,8.05,2
870,7.31,2
871,7.38,2
872,7.57,2
873,7.06,2
874,7.48,2
875,7.23,2
876,7.46,2
877,7.79,2
878,7.89,2
879,7.66,2
880,8.11,2
881,8.24,2
882,7.52,2
883,8.11,2
884,8.24,2
885,8.37,2
886,8.23,2
887,8.54,2
888,8.67,2
889,8.38,2
890,8.34,2
891,8.76,2
892,8.33,2
893,8.22,2
894,8.39,2
895,8.13,2
896,7.82,2
897,8.06,2
898,7.67,2
899,8.03,2
900,8.82,2
901,8.68,2
902,8.48,2
903,8.55,2
904,8.17,2
905,8.64,2
906,8.12,2
907,8.77,2
908,8.64,2
909,8.68,2
910,8.11,2
911,8.2,2
912,8.31,2
913,8.23,2
914,9.64,2
915,9.33,2
916,9.46,2
917,9.14,2
918,9.6,2
919,9.7,2
920,9.4,2
921,8.66,2
922,7.97,2
923,8.35,2
924,8.77,2
925,8.5,2
926,7.75,2
927,7.32,2
928,7.15,2
929,7.37,2
930,7.01,2
931,6.6,2
932,6.89,2
933,7.34,2
934,7.58,2
935,7.18,2
936,7.4,2
937,7.0,2
938,6.97,2
939,6.43,2
940,6.2,2
941,6.41,2
942,7.21,2
943,7.19,2
944,7.38,2
945,8.16,2
946,7.74,2
947,7.64,2
948,7.48,2
949,8.31,2
950,8.68,2
951,8.27,2
952,8.5,2
953,8.74,2
954,8.26,2
955,7.56,2
956,7.28,2
957,7.1,2
958,7.33,2
959,7.53,2
960,7.92,2
961,8.2,2
962,8.34,2
963,8.47,2
964,8.99,2
965,8.76,2
966,8.59,2
967,8.37,2
968,8.03,2
969,8.73,2
970,8.86,2
971,8.08,2
972,7.63,2
973,7.88,2
974,8.31,2
975,7.93,2
976,8.04,2
977,7.95,2
978,7.77,2
979,8.74,2
980,8.48,2
981,8.39,2
982,7.92,2
983,8.04,2
984,8.06,2
985,7.78,2
986,7.6,2
987,8.33,2
988,8.06,2
989,8.15,2
990,7.86,2
991,7.07,2
992,7.26,2
993,7.44,2
994,8.07,2
995,8.09,2
996,7.85,2
997,7.49,2
998,7.51,2
999,7.26,2
